
Gurobi 10.0.1 (linux64) logging started Sun Nov 26 15:37:47 2023

Set parameter LogFile to value "ArtificialInstance/ExperimentV2/S3T5K3/BaSp/gurobi1.txt"
Gurobi Optimizer version 10.0.1 build v10.0.1rc0 (linux64)

CPU model: AMD EPYC 7H12 64-Core Processor, instruction set [SSE2|AVX|AVX2]
Thread count: 128 physical cores, 128 logical processors, using up to 32 threads

Academic license 656792 - for non-commercial use only - registered to b.___@student.vu.nl
Optimize a model with 5280 rows, 8000 columns and 27360 nonzeros
Model fingerprint: 0x84c3a493
Variable types: 0 continuous, 8000 integer (8000 binary)
Coefficient statistics:
  Matrix range     [1e+00, 1e+00]
  Objective range  [1e+00, 2e+01]
  Bounds range     [1e+00, 1e+00]
  RHS range        [1e+00, 1e+00]
Found heuristic solution: objective 641.0328958
Presolve time: 0.04s
Presolved: 5280 rows, 8000 columns, 27360 nonzeros
Variable types: 0 continuous, 8000 integer (8000 binary)

Root relaxation: objective 5.382560e+01, 4513 iterations, 0.08 seconds (0.05 work units)

    Nodes    |    Current Node    |     Objective Bounds      |     Work
 Expl Unexpl |  Obj  Depth IntInf | Incumbent    BestBd   Gap | It/Node Time

     0     0   53.82560    0 1250  641.03290   53.82560  91.6%     -    0s
H    0     0                     467.5545948   53.82560  88.5%     -    0s
H    0     0                     121.8604333   53.82560  55.8%     -    0s
     0     0   60.46476    0 1723  121.86043   60.46476  50.4%     -    0s
H    0     0                     111.8527393   60.46476  45.9%     -    0s
     0     0   66.61271    0 1753  111.85274   66.61271  40.4%     -    1s
     0     0   66.61291    0 1708  111.85274   66.61291  40.4%     -    1s
     0     0   69.22355    0 1766  111.85274   69.22355  38.1%     -    1s
H    0     0                      98.8902537   69.22355  30.0%     -    1s
     0     0   69.24006    0 1747   98.89025   69.24006  30.0%     -    1s
     0     0   69.24006    0 1740   98.89025   69.24006  30.0%     -    1s
H    0     0                      95.1434643   69.24006  27.2%     -    1s
H    0     0                      91.8953312   70.68264  23.1%     -    2s
     0     0   70.68264    0 1646   91.89533   70.68264  23.1%     -    2s
     0     0   70.69070    0 1696   91.89533   70.69070  23.1%     -    2s
     0     0   70.69569    0 1634   91.89533   70.69569  23.1%     -    2s
     0     0   71.16955    0 1804   91.89533   71.16955  22.6%     -    2s
H    0     0                      88.4399000   71.16955  19.5%     -    2s
     0     0   71.21608    0 1810   88.43990   71.21608  19.5%     -    2s
     0     0   71.21619    0 1774   88.43990   71.21619  19.5%     -    2s
     0     0   71.71672    0 1957   88.43990   71.71672  18.9%     -    2s
     0     0   71.77004    0 1819   88.43990   71.77004  18.8%     -    2s
     0     0   71.77087    0 1834   88.43990   71.77087  18.8%     -    3s
     0     0   71.90053    0 1807   88.43990   71.90053  18.7%     -    3s
     0     0   71.96762    0 1879   88.43990   71.96762  18.6%     -    3s
H    0     0                      87.8911434   71.96889  18.1%     -    3s
     0     0   71.96889    0 1823   87.89114   71.96889  18.1%     -    3s
     0     0   72.06057    0 1840   87.89114   72.06057  18.0%     -    3s
     0     0   72.06321    0 1836   87.89114   72.06321  18.0%     -    3s
     0     0   72.06323    0 1877   87.89114   72.06323  18.0%     -    3s
     0     0   72.06385    0 1866   87.89114   72.06385  18.0%     -    3s
     0     0   72.22794    0 1871   87.89114   72.22794  17.8%     -    4s
     0     0   72.25838    0 1916   87.89114   72.25838  17.8%     -    4s
     0     0   72.25978    0 1843   87.89114   72.25978  17.8%     -    4s
H    0     0                      85.3462914   72.42850  15.1%     -    4s
     0     0   72.42850    0 1906   85.34629   72.42850  15.1%     -    4s
     0     0   72.44928    0 1771   85.34629   72.44928  15.1%     -    4s
     0     0   72.44928    0 1738   85.34629   72.44928  15.1%     -    4s
     0     0   72.47458    0 1730   85.34629   72.47458  15.1%     -    4s
H    0     0                      85.2963501   72.48834  15.0%     -    4s
     0     0   72.48834    0 1746   85.29635   72.48834  15.0%     -    4s
     0     0   72.48834    0 1746   85.29635   72.48834  15.0%     -    4s
     0     0   72.65079    0 1774   85.29635   72.65079  14.8%     -    5s
     0     0   72.65599    0 1768   85.29635   72.65599  14.8%     -    5s
     0     0   72.70853    0 1753   85.29635   72.70853  14.8%     -    5s
     0     0   72.72000    0 1644   85.29635   72.72000  14.7%     -    5s
     0     0   72.72769    0 1640   85.29635   72.72769  14.7%     -    5s
     0     0   72.73334    0 1645   85.29635   72.73334  14.7%     -    5s
     0     0   72.87928    0 1802   85.29635   72.87928  14.6%     -    5s
     0     0   72.88805    0 1790   85.29635   72.88805  14.5%     -    5s
     0     0   72.88872    0 1799   85.29635   72.88872  14.5%     -    5s
     0     0   72.96160    0 1829   85.29635   72.96160  14.5%     -    6s
     0     0   72.96160    0 1545   85.29635   72.96160  14.5%     -    6s
     0     2   72.96160    0 1545   85.29635   72.96160  14.5%     -    7s
    53    66   74.75210    6 1144   85.29635   74.50287  12.7%  1523   10s
H  716   239                      84.1463105   75.87463  9.83%   436   13s
  1169   239   80.61536   16  661   84.14631   75.87463  9.83%   362   15s

Cutting planes:
  Gomory: 7
  Zero half: 441
  RLT: 312

Explored 2172 nodes (686806 simplex iterations) in 17.40 seconds (17.12 work units)
Thread count was 32 (of 128 available processors)

Solution count 10: 84.1463 85.2964 85.3463 ... 121.86

Optimal solution found (tolerance 1.00e-04)
Best objective 8.414631049945e+01, best bound 8.414631049945e+01, gap 0.0000%
